NAME          
ROWS
 N  OBJ
 L  c1
COLUMNS
    MARKER    'MARKER'                 'INTORG'
    x[1]      c1        825
    x[1]      OBJ       -764
    x[2]      c1        1095
    x[2]      OBJ       -995
    x[3]      c1        831
    x[3]      OBJ       -779
    x[4]      c1        894
    x[4]      OBJ       -833
    x[5]      c1        790
    x[5]      OBJ       -773
    x[6]      c1        504
    x[6]      OBJ       -423
    x[7]      c1        497
    x[7]      OBJ       -482
    x[8]      c1        90
    x[8]      OBJ       -7
    x[9]      c1        245
    x[9]      OBJ       -304
    x[10]     c1        748
    x[10]     OBJ       -843
    x[11]     c1        282
    x[11]     OBJ       -276
    x[12]     c1        67
    x[12]     OBJ       -134
    x[13]     c1        694
    x[13]     OBJ       -761
    x[14]     c1        407
    x[14]     OBJ       -491
    x[15]     c1        470
    x[15]     OBJ       -556
    x[16]     c1        789
    x[16]     OBJ       -741
    x[17]     c1        67
    x[17]     OBJ       -81
    x[18]     c1        401
    x[18]     OBJ       -385
    x[19]     c1        934
    x[19]     OBJ       -970
    x[20]     c1        676
    x[20]     OBJ       -674
    x[21]     c1        334
    x[21]     OBJ       -379
    x[22]     c1        142
    x[22]     OBJ       -227
    x[23]     c1        437
    x[23]     OBJ       -413
    x[24]     c1        108
    x[24]     OBJ       -192
    x[25]     c1        548
    x[25]     OBJ       -559
    x[26]     c1        115
    x[26]     OBJ       -189
    x[27]     c1        82
    x[27]     OBJ       -42
    x[28]     c1        -6
    x[28]     OBJ       -41
    x[29]     c1        864
    x[29]     OBJ       -843
    x[30]     c1        25
    x[30]     OBJ       -124
RHS
    rhs       c1        6978
RANGES
BOUNDS
 LO bounds    x[1]      0
 PL bounds    x[1]
 LO bounds    x[2]      0
 PL bounds    x[2]
 LO bounds    x[3]      0
 PL bounds    x[3]
 LO bounds    x[4]      0
 PL bounds    x[4]
 LO bounds    x[5]      0
 PL bounds    x[5]
 LO bounds    x[6]      0
 PL bounds    x[6]
 LO bounds    x[7]      0
 PL bounds    x[7]
 LO bounds    x[8]      0
 PL bounds    x[8]
 LO bounds    x[9]      0
 PL bounds    x[9]
 LO bounds    x[10]     0
 PL bounds    x[10]
 LO bounds    x[11]     0
 PL bounds    x[11]
 LO bounds    x[12]     0
 PL bounds    x[12]
 LO bounds    x[13]     0
 PL bounds    x[13]
 LO bounds    x[14]     0
 PL bounds    x[14]
 LO bounds    x[15]     0
 PL bounds    x[15]
 LO bounds    x[16]     0
 PL bounds    x[16]
 LO bounds    x[17]     0
 PL bounds    x[17]
 LO bounds    x[18]     0
 PL bounds    x[18]
 LO bounds    x[19]     0
 PL bounds    x[19]
 LO bounds    x[20]     0
 PL bounds    x[20]
 LO bounds    x[21]     0
 PL bounds    x[21]
 LO bounds    x[22]     0
 PL bounds    x[22]
 LO bounds    x[23]     0
 PL bounds    x[23]
 LO bounds    x[24]     0
 PL bounds    x[24]
 LO bounds    x[25]     0
 PL bounds    x[25]
 LO bounds    x[26]     0
 PL bounds    x[26]
 LO bounds    x[27]     0
 PL bounds    x[27]
 LO bounds    x[28]     0
 PL bounds    x[28]
 LO bounds    x[29]     0
 PL bounds    x[29]
 LO bounds    x[30]     0
 PL bounds    x[30]
ENDATA
